c "805889.clq"
p edge 200 784
e 1 5
e 1 6
e 1 7
e 1 8
e 1 10
e 1 11
e 1 18
e 1 19
e 1 21
e 1 41
e 1 45
e 1 55
e 1 143
e 1 150
e 1 164
e 1 183
e 1 197
e 2 5
e 2 6
e 2 9
e 2 10
e 2 36
e 2 38
e 2 55
e 2 72
e 2 129
e 2 157
e 2 173
e 3 5
e 3 6
e 3 7
e 3 9
e 3 13
e 3 14
e 3 15
e 3 16
e 3 17
e 3 21
e 3 24
e 3 26
e 3 27
e 3 33
e 3 37
e 3 41
e 3 56
e 3 59
e 3 65
e 3 73
e 3 79
e 3 82
e 3 87
e 3 92
e 3 101
e 3 121
e 3 129
e 3 137
e 3 147
e 3 173
e 4 5
e 4 11
e 4 12
e 4 19
e 4 34
e 4 92
e 4 138
e 4 190
e 5 6
e 5 7
e 5 8
e 5 9
e 5 10
e 5 15
e 5 20
e 5 27
e 5 29
e 5 30
e 5 39
e 5 40
e 5 42
e 5 50
e 5 53
e 5 58
e 5 59
e 5 63
e 5 75
e 5 84
e 5 85
e 5 102
e 5 128
e 5 136
e 5 137
e 5 141
e 5 147
e 5 152
e 5 161
e 5 175
e 5 189
e 5 191
e 5 193
e 6 7
e 6 8
e 6 9
e 6 11
e 6 28
e 6 32
e 6 35
e 6 41
e 6 43
e 6 60
e 6 63
e 6 78
e 7 8
e 7 11
e 7 16
e 7 17
e 7 19
e 7 20
e 7 21
e 7 24
e 7 25
e 7 26
e 7 28
e 7 31
e 7 32
e 7 36
e 7 39
e 7 42
e 7 43
e 7 44
e 7 53
e 7 65
e 7 73
e 7 79
e 7 85
e 7 94
e 7 95
e 7 105
e 7 110
e 7 118
e 7 127
e 7 129
e 7 130
e 7 142
e 7 147
e 7 164
e 7 185
e 7 196
e 7 198
e 8 10
e 8 12
e 8 13
e 8 16
e 8 23
e 8 54
e 8 60
e 8 64
e 8 77
e 8 101
e 8 134
e 8 135
e 8 148
e 8 149
e 8 175
e 9 12
e 9 13
e 9 14
e 9 20
e 9 30
e 9 32
e 9 44
e 9 48
e 9 54
e 9 61
e 9 78
e 9 91
e 9 96
e 9 100
e 9 118
e 9 122
e 9 136
e 9 137
e 9 157
e 9 158
e 9 195
e 9 199
e 10 18
e 10 23
e 10 27
e 10 29
e 10 33
e 10 40
e 10 72
e 10 73
e 10 74
e 10 116
e 10 123
e 10 130
e 10 133
e 10 145
e 10 156
e 10 178
e 10 180
e 10 182
e 10 186
e 11 12
e 11 13
e 11 15
e 11 21
e 11 23
e 11 25
e 11 33
e 11 44
e 11 46
e 11 58
e 11 64
e 11 74
e 11 80
e 11 83
e 11 85
e 11 87
e 11 90
e 11 109
e 11 113
e 11 131
e 11 132
e 11 135
e 11 136
e 11 155
e 11 156
e 11 161
e 11 179
e 11 180
e 11 198
e 12 14
e 12 15
e 12 17
e 12 22
e 12 23
e 12 25
e 12 28
e 12 31
e 12 32
e 12 35
e 12 37
e 12 38
e 12 48
e 12 51
e 12 60
e 12 68
e 12 69
e 12 70
e 12 71
e 12 75
e 12 80
e 12 83
e 12 86
e 12 87
e 12 90
e 12 92
e 12 93
e 12 95
e 12 102
e 12 112
e 12 113
e 12 120
e 12 125
e 12 128
e 12 138
e 12 158
e 12 163
e 12 165
e 12 166
e 12 176
e 12 178
e 12 181
e 12 188
e 12 193
e 13 14
e 13 36
e 13 45
e 13 80
e 13 89
e 13 93
e 13 110
e 13 141
e 13 145
e 13 167
e 13 181
e 14 17
e 14 18
e 14 22
e 14 28
e 14 31
e 14 35
e 14 47
e 14 72
e 14 73
e 14 81
e 14 112
e 14 148
e 14 149
e 14 152
e 14 195
e 15 16
e 15 18
e 15 19
e 15 20
e 15 22
e 15 33
e 15 49
e 15 79
e 15 84
e 15 106
e 15 137
e 15 142
e 15 161
e 15 179
e 15 185
e 15 199
e 16 43
e 16 46
e 16 47
e 16 52
e 16 67
e 16 68
e 16 96
e 16 98
e 16 99
e 16 101
e 16 103
e 16 107
e 16 132
e 16 166
e 16 184
e 16 187
e 17 24
e 17 30
e 17 46
e 17 47
e 17 55
e 17 57
e 17 72
e 17 133
e 18 24
e 18 25
e 18 26
e 18 37
e 18 57
e 18 75
e 18 119
e 18 170
e 18 197
e 19 116
e 19 117
e 20 22
e 20 26
e 20 29
e 20 31
e 20 56
e 20 61
e 20 97
e 20 127
e 20 172
e 20 178
e 21 29
e 21 36
e 21 48
e 21 55
e 21 67
e 21 132
e 21 149
e 22 27
e 22 50
e 22 57
e 22 177
e 23 48
e 23 51
e 23 98
e 23 108
e 23 117
e 23 124
e 23 125
e 23 138
e 23 139
e 23 141
e 23 169
e 23 194
e 24 44
e 24 52
e 24 69
e 24 71
e 24 94
e 24 101
e 24 145
e 25 30
e 25 35
e 25 39
e 25 64
e 25 66
e 25 105
e 25 144
e 26 45
e 26 51
e 26 76
e 26 88
e 26 97
e 26 110
e 26 124
e 26 134
e 26 158
e 26 176
e 27 38
e 28 42
e 28 62
e 28 81
e 28 86
e 28 122
e 28 184
e 29 34
e 29 37
e 29 42
e 29 49
e 29 93
e 29 97
e 29 99
e 29 123
e 29 128
e 29 144
e 29 154
e 29 158
e 29 183
e 30 38
e 30 49
e 30 58
e 30 67
e 30 146
e 30 148
e 30 157
e 30 163
e 31 34
e 31 69
e 31 82
e 31 100
e 31 120
e 31 127
e 31 131
e 31 159
e 31 167
e 31 193
e 32 34
e 32 41
e 32 43
e 32 50
e 32 54
e 32 56
e 32 108
e 32 144
e 32 149
e 32 196
e 33 52
e 33 62
e 33 63
e 33 77
e 33 81
e 33 85
e 33 104
e 33 113
e 33 138
e 33 141
e 33 144
e 34 39
e 34 53
e 34 61
e 34 68
e 34 70
e 34 71
e 34 78
e 34 123
e 34 139
e 34 140
e 34 170
e 34 174
e 34 189
e 34 192
e 34 194
e 35 102
e 35 124
e 35 132
e 35 133
e 35 151
e 35 159
e 35 177
e 36 40
e 36 51
e 36 93
e 36 121
e 36 140
e 36 142
e 36 153
e 36 166
e 36 169
e 36 186
e 37 58
e 37 61
e 38 40
e 38 45
e 38 71
e 38 75
e 38 191
e 39 47
e 39 54
e 39 60
e 39 86
e 39 108
e 39 128
e 39 162
e 39 177
e 39 196
e 40 65
e 40 81
e 40 84
e 40 107
e 40 139
e 40 164
e 41 56
e 41 68
e 41 69
e 41 102
e 42 52
e 42 63
e 42 70
e 42 74
e 42 79
e 42 80
e 42 181
e 43 49
e 43 57
e 43 66
e 43 67
e 43 76
e 43 77
e 43 84
e 43 96
e 43 104
e 43 114
e 43 116
e 43 143
e 43 160
e 43 195
e 43 200
e 44 46
e 44 66
e 44 90
e 44 99
e 44 124
e 45 107
e 45 115
e 45 129
e 45 155
e 45 165
e 46 59
e 47 74
e 47 83
e 47 89
e 47 100
e 47 111
e 47 160
e 47 161
e 47 162
e 48 50
e 48 53
e 48 88
e 48 91
e 48 131
e 50 106
e 50 110
e 50 111
e 50 171
e 51 111
e 51 116
e 51 143
e 51 153
e 51 187
e 52 59
e 52 106
e 52 113
e 52 184
e 53 100
e 53 134
e 53 183
e 54 88
e 54 99
e 54 131
e 54 164
e 54 184
e 55 62
e 55 77
e 55 91
e 55 166
e 56 87
e 56 114
e 56 171
e 56 185
e 57 94
e 57 173
e 58 76
e 58 94
e 58 142
e 59 62
e 59 64
e 59 153
e 61 178
e 63 65
e 63 95
e 63 126
e 64 66
e 64 114
e 64 130
e 64 160
e 65 70
e 65 160
e 66 150
e 67 127
e 67 140
e 68 126
e 68 146
e 68 153
e 68 170
e 68 177
e 69 90
e 69 115
e 69 117
e 69 154
e 69 175
e 69 194
e 70 106
e 70 199
e 71 76
e 71 92
e 71 108
e 71 119
e 71 123
e 71 159
e 72 134
e 73 83
e 74 86
e 74 89
e 74 91
e 74 115
e 74 119
e 74 187
e 75 78
e 75 82
e 75 98
e 75 115
e 75 120
e 75 121
e 75 126
e 75 136
e 75 174
e 76 118
e 76 157
e 76 192
e 77 112
e 78 179
e 78 200
e 79 88
e 79 95
e 79 109
e 79 170
e 79 182
e 79 183
e 80 82
e 80 89
e 80 96
e 80 175
e 80 198
e 81 107
e 84 117
e 84 169
e 86 103
e 86 140
e 86 163
e 88 103
e 89 133
e 90 105
e 90 109
e 90 200
e 91 98
e 92 148
e 93 104
e 93 114
e 94 97
e 94 165
e 95 135
e 95 189
e 96 122
e 97 104
e 97 155
e 98 156
e 99 103
e 99 155
e 101 105
e 101 121
e 101 126
e 101 168
e 101 179
e 101 182
e 102 172
e 102 173
e 103 188
e 105 112
e 105 187
e 106 111
e 107 120
e 108 109
e 109 196
e 110 118
e 110 190
e 112 135
e 113 130
e 113 198
e 114 119
e 114 159
e 114 169
e 115 146
e 115 154
e 115 168
e 115 191
e 115 197
e 116 139
e 116 143
e 116 150
e 116 151
e 116 156
e 117 125
e 118 174
e 120 147
e 121 122
e 121 163
e 121 188
e 122 125
e 124 186
e 126 162
e 126 194
e 127 168
e 129 189
e 130 145
e 131 168
e 131 188
e 131 192
e 133 176
e 133 180
e 133 181
e 133 199
e 134 171
e 135 152
e 136 146
e 136 150
e 136 165
e 137 151
e 141 171
e 141 193
e 142 167
e 143 190
e 144 162
e 145 151
e 145 195
e 146 154
e 146 190
e 148 152
e 148 172
e 149 182
e 151 180
e 153 185
e 153 186
e 157 167
e 160 191
e 161 172
e 162 192
e 171 174
e 171 200
e 173 176
e 191 197
